Traveling Salesman Problem/TSP_generados/Aleatorio1620390883_7.tsp
NAME: Aleatorio1620390883_7.tsp
COMMENT: Randomly generated scenario
TYPE: TSP
DIMENSION: 7
EDGE_WEIGHT_TYPE: ATT
NODE_COORD_SECTION
1 15.92 17.47
2 34.72 43.04
3 25.36 37.72
4 1.15 41.35
5 32.29 30.4
6 11.2 16.96
7 19.14 18.51
