Traveling Salesman Problem/TSP_generados/Aleatorio1620390883_7.opt.tour
NAME: Aleatorio1620390883_7.opt.tour
COMMENT: Optimal solution for Aleatorio1620390883_7 (100.35737807735002)
TYPE: TOUR
DIMENSION: 7
TOUR_SECTION
1 7 5 2 3 4 6
-1
EOF
